63 100
7 5 1
5 4 2
1 1 3
9 6 2
3 10 1
3 9 3
2 1 1
5 2 4
3 3 1
1 7 2
8 10 2
7 10 2
1 10 2
2 4 3
10 3 2
2 7 2
6 4 2
5 1 1
3 1 2
1 9 3
10 5 1
5 10 2
6 10 1
8 5 1
1 5 2
9 9 4
4 1 2
6 6 3
8 2 1
4 10 1
3 8 1
2 8 1
2 5 2
9 1 1
1 3 2
1 8 1
10 8 1
8 3 2
2 10 1
6 7 1
2 6 1
3 6 1
4 8 2
5 6 1
3 4 1
9 10 1
2 3 1
3 5 1
7 4 1
4 4 3
6 8 1
8 7 1
5 9 1
1 2 2
9 8 1
5 3 1
6 1 1
9 5 1
4 9 1
7 2 1
2 2 1
10 7 2
4 5 1
30 30 
30 30 
30 30 
30 30 
30 30 
30 30 
30 30 
30 30 
30 30 
30 30 
30 30 
30 30 
30 30 
30 30 
30 30 
30 30 
30 30 
30 30 
30 30 
30 30 
30 30 
30 30 
30 30 
30 30 
30 30 
30 30 
30 30 
30 30 
30 30 
30 30 
30 30 
30 30 
30 30 
30 30 
30 30 
30 30 
30 30 
30 30 
30 30 
30 30 
30 30 
30 30 
30 30 
30 30 
30 30 
30 30 
30 30 
30 30 
30 30 
30 30 
30 30 
30 30 
30 30 
30 30 
30 30 
30 30 
30 30 
30 30 
30 30 
30 30 
30 30 
30 30 
30 30 
30 30 
30 30 
30 30 
30 30 
30 30 
30 30 
30 30 
30 30 
30 30 
30 30 
30 30 
30 30 
30 30 
30 30 
30 30 
30 30 
30 30 
30 30 
30 30 
30 30 
30 30 
30 30 
30 30 
30 30 
30 30 
30 30 
30 30 
30 30 
30 30 
30 30 
30 30 
30 30 
30 30 
30 30 
30 30 
30 30 
30 30 
